(set-logic AUFLIRA)
(declare-const res Bool)
(declare-const y Bool)
(declare-const z Bool)
(declare-const a Bool)
(declare-const b Bool)
(assert (= res (and y z a b)))
(assert (= (mod 3 4) (mod 2 4)))
(check-sat)
(get-value (res))
(get-value (x))
(exit)